TCS_Benchmarks/redos_fix/regexlib1_output_distinct_3303_3302_36_0.smt2
(set-logic QF_S)
(declare-const x String)
(assert (str.in.re x (re.inter (re.+ (re.range "\u{30}" "\u{39}") )  (re.++ (re.+ (re.range "\u{30}" "\u{39}") ) (re.++  (re.++ (re.opt  (str.to.re "\u{65}") ) (re.++ (re.opt  (str.to.re "\u{2d}") ) (re.opt  (str.to.re "\u{65}") ))) (re.* (re.range "\u{30}" "\u{39}") ))) (re.* (re.range "\u{30}" "\u{39}") ) )))
(check-sat)
(get-model)