TCS_Benchmarks/redos_fix/regexlib1_output_distinct_3303_3302_36_0.txt
\d+
(\d+)(e?-?e?)(\d*)
\d*